321,46
641,326
651,406
468,298
575,512
635,548
641,326
874,140
1108,189
1214,490
1137,258
817,139
874,140
681,256
591,406
576,551
523,624
487,547
414,542
681,946
448,639
464,833
609,458
810,7
591,406
448,639
427,660
487,547
611,309
681,256
681,106
653,229
611,309
708,491
707,419
709,397
921,528
802,494
663,349
1214,490
